50
2568

135 967
177 725
991 354
658 399
655 224
331 526
590 137
638 856
173 394
509 310
873 866
752 920
112 238
194 152
953 980
526 205
712 795
698 460
446 555
788 505
742 855
902 374
239 449
733 852
955 497
929 287
463 154
531 136
689 147
619 383
224 704
867 347
589 804
498 763
607 69
934 543
13 276
310 925
599 750
977 407
48 881
571 756
901 338
136 363
894 247
450 662
767 571
200 301
852 786
106 412
